
  20    0


   0  12 2 3 4 5 8 13 14 15 16 17 18 19 
   6   3 12 11 6 
   3   3 10 7 6 
   5   1 6 
   7   1 6 
   6   1 9 
   3   1 9 
   2   1 9 
  10   1 20
  10   1 20
   1   1 20
   9   1 20
   4   1 20
   8   1 20
   8   1 20
   6   1 20
   3   1 20
   4   1 20
   9   1 20
   0   0 
